c 1 web_portal
c 2 add_services
c 3 site_stats
c 4 basic
c 5 advanced
c 6 site_search
c 7 images
c 8 text
c 9 html
c 10 dynamic
c 11 ad_server
c 12 reports
c 13 popups
c 14 banners
c 15 ban_img
c 16 ban_flash
c 17 keyword
c 18 web_server
c 19 logging
c 20 db
c 21 file
c 22 protocol
c 23 nttp
c 24 ftp
c 25 https
c 26 cont
c 27 static
c 28 active
c 29 asp
c 30 php
c 31 jsp
c 32 cgi
c 33 persistence
c 34 xml
c 35 database
c 36 ri
c 37 data_storage
c 38 data_transfer
c 39 user_auth
c 40 performance
c 41 ms
c 42 sec
c 43 min
p cnf 43 68
1 0
-2 1 0
-18 1 0
-1 18 0
-33 1 0
-36 1 0
-40 1 0
-3 2 0
-6 2 0
-11 2 0
-19 18 0
-22 18 0
-26 18 0
-18 26 0
-34 33 0
-35 33 0
-33 34 35 0
-34 -35 0
-37 36 0
-38 36 0
-39 36 0
-36 37 38 39 0
-41 40 0
-42 40 0
-43 40 0
-40 41 42 43 0
-41 -42 0
-41 -43 0
-42 -43 0
-4 3 0
-3 4 0
-5 3 0
-7 6 0
-8 6 0
-12 11 0
-11 12 0
-13 11 0
-14 11 0
-11 14 0
-17 11 0
-20 19 0
-21 19 0
-19 20 21 0
-20 -21 0
-23 22 0
-24 22 0
-25 22 0
-22 23 24 25 0
-27 26 0
-26 27 0
-28 26 0
-9 8 0
-8 9 0
-10 8 0
-15 14 0
-14 15 0
-16 14 0
-29 28 0
-30 28 0
-31 28 0
-32 28 0
-28 29 30 31 32 0
-38 25 0
-20 35 0
-25 -41 0
-21 24 0
-17 8 0
-10 28 0
